
Log started (V20.1.0.0) Fri Aug 19 23:56:16 2022


Problem 'pp.lp' read.
Read time = 0.00 sec. (0.00 ticks)
Version identifier: 20.1.0.0 | 2020-11-10 | 9bedb6d68
Tried aggregator 1 time.
No LP presolve or aggregator reductions.
Presolve time = 0.00 sec. (0.00 ticks)

Iteration log . . .
Iteration:     1   Dual objective     =            46.363636

Dual simplex - Optimal:  Objective =  4.6363636364e+01
Solution time =    0.00 sec.  Iterations = 1 (0)
Deterministic time = 0.00 ticks  (3.94 ticks/sec)


Variable Name           Solution Value
x3                            0.909091
All other variables matching '*' are 0.

Log started (V20.1.0.0) Sat Aug 20 00:12:34 2022


Problem 'pp.lp' read.
Read time = 0.00 sec. (0.00 ticks)
Version identifier: 20.1.0.0 | 2020-11-10 | 9bedb6d68
Tried aggregator 1 time.
No LP presolve or aggregator reductions.
Presolve time = 0.02 sec. (0.00 ticks)

Iteration log . . .
Iteration:     1   Dual objective     =           250.000000

Dual simplex - Optimal:  Objective =  2.5000000000e+02
Solution time =    0.02 sec.  Iterations = 1 (0)
Deterministic time = 0.00 ticks  (0.26 ticks/sec)


Variable Name           Solution Value
x1                            5.000000
All other variables matching '*' are 0.

Log started (V20.1.0.0) Sat Aug 20 00:24:01 2022


Problem 'pd.lp' read.
Read time = 0.00 sec. (0.00 ticks)
Version identifier: 20.1.0.0 | 2020-11-10 | 9bedb6d68
Tried aggregator 1 time.
No LP presolve or aggregator reductions.
Presolve time = 0.00 sec. (0.00 ticks)

Iteration log . . .
Iteration:     1   Scaled dual infeas =             0.000000

Dual simplex - Optimal:  Objective =  2.5000000000e+02
Solution time =    0.00 sec.  Iterations = 1 (1)
Deterministic time = 0.00 ticks  (4.25 ticks/sec)

